\ Model UFLP
\ LP format - for model browsing. Use MPS format to capture full model detail.
Minimize
  3 x[0] + 2 x[1] + 3 x[2] + x[3] + 3 x[4] + 3 x[5] + 4 x[6] + 3 x[7]
   + 2 x[8] + 1.5 y[0,0] + 0.5 y[0,1] + 0.5 y[0,2]
   + 1.802775637731995 y[0,3] + 1.118033988749895 y[0,4]
   + 1.118033988749895 y[0,5] + 2.5 y[0,6] + 2.06155281280883 y[0,7]
   + 2.06155281280883 y[0,8] + 2.773084924772409 y[1,0]
   + 2.50798724079689 y[1,1] + 2.624880949681338 y[1,2]
   + 1.920937271229855 y[1,3] + 1.513274595042156 y[1,4] + 1.7 y[1,5]
   + 1.3 y[1,6] + 0.5385164807134504 y[1,7] + 0.9433981132056605 y[1,8]
Subject To
 Shipping[0,0]: - x[0] + y[0,0] <= 0
 Shipping[0,1]: - x[1] + y[0,1] <= 0
 Shipping[0,2]: - x[2] + y[0,2] <= 0
 Shipping[0,3]: - x[3] + y[0,3] <= 0
 Shipping[0,4]: - x[4] + y[0,4] <= 0
 Shipping[0,5]: - x[5] + y[0,5] <= 0
 Shipping[0,6]: - x[6] + y[0,6] <= 0
 Shipping[0,7]: - x[7] + y[0,7] <= 0
 Shipping[0,8]: - x[8] + y[0,8] <= 0
 Shipping[1,0]: - x[0] + y[1,0] <= 0
 Shipping[1,1]: - x[1] + y[1,1] <= 0
 Shipping[1,2]: - x[2] + y[1,2] <= 0
 Shipping[1,3]: - x[3] + y[1,3] <= 0
 Shipping[1,4]: - x[4] + y[1,4] <= 0
 Shipping[1,5]: - x[5] + y[1,5] <= 0
 Shipping[1,6]: - x[6] + y[1,6] <= 0
 Shipping[1,7]: - x[7] + y[1,7] <= 0
 Shipping[1,8]: - x[8] + y[1,8] <= 0
 Demand[0]: y[0,0] + y[0,1] + y[0,2] + y[0,3] + y[0,4] + y[0,5] + y[0,6]
   + y[0,7] + y[0,8] = 1
 Demand[1]: y[1,0] + y[1,1] + y[1,2] + y[1,3] + y[1,4] + y[1,5] + y[1,6]
   + y[1,7] + y[1,8] = 1
 Capacity[0]: - 500 x[0] + 600 y[0,0] + 700 y[1,0] <= 0
 Capacity[1]: - 500 x[1] + 600 y[0,1] + 700 y[1,1] <= 0
 Capacity[2]: - 500 x[2] + 600 y[0,2] + 700 y[1,2] <= 0
 Capacity[3]: - 500 x[3] + 600 y[0,3] + 700 y[1,3] <= 0
 Capacity[4]: - 500 x[4] + 600 y[0,4] + 700 y[1,4] <= 0
 Capacity[5]: - 500 x[5] + 600 y[0,5] + 700 y[1,5] <= 0
 Capacity[6]: - 500 x[6] + 600 y[0,6] + 700 y[1,6] <= 0
 Capacity[7]: - 500 x[7] + 600 y[0,7] + 700 y[1,7] <= 0
 Capacity[8]: - 500 x[8] + 600 y[0,8] + 700 y[1,8] <= 0
Bounds
 y[0,0] <= 1
 y[0,1] <= 1
 y[0,2] <= 1
 y[0,3] <= 1
 y[0,4] <= 1
 y[0,5] <= 1
 y[0,6] <= 1
 y[0,7] <= 1
 y[0,8] <= 1
 y[1,0] <= 1
 y[1,1] <= 1
 y[1,2] <= 1
 y[1,3] <= 1
 y[1,4] <= 1
 y[1,5] <= 1
 y[1,6] <= 1
 y[1,7] <= 1
 y[1,8] <= 1
Binaries
 x[0] x[1] x[2] x[3] x[4] x[5] x[6] x[7] x[8]
End
